(set-info :smt-lib-version 2.6)
(set-logic QF_NIA)
(set-info :source |AProve team, see http://aprove.informatik.rwth-aachen.de/, submitted for SMT-COMP 2014|)
(set-info :category "industrial")
(set-info :status sat)
(declare-fun b__12 () Int)
(declare-fun a__4 () Int)
(declare-fun a__6 () Int)
(declare-fun a__10 () Int)
(declare-fun a__2 () Int)
(declare-fun a__8 () Int)
(declare-fun a__11 () Int)
(declare-fun a__5 () Int)
(declare-fun a__7 () Int)
(declare-fun a__3 () Int)
(declare-fun a__9 () Int)
(assert (and (>= (+ 1 (* (- 0 1) b__12)) 0) (= (+ (* b__12 a__4) (* (- 0 1) a__4)) 0) (>= (+ (* a__6 a__4) (* (- 0 1) (* a__10 a__4))) 0) (>= (+ (* a__6 a__4) (* (- 0 1) a__4)) 0) (>= (+ (* a__6 a__2) (* (- 0 1) a__2)) 0) (>= (+ (* b__12 a__6 a__10) (* (- 0 1) (* b__12 a__10 a__10))) 0) (>= (+ (* b__12 a__6 a__8) (* (- 0 1) (* b__12 a__8))) 0) (>= (+ (* b__12 a__10) (* (- 0 1) (* b__12 a__6))) 0) (>= (+ (* b__12 a__11 a__10) (* (- 0 1) (* b__12 a__5 a__10)) (* (- 0 1) (* b__12 a__11 a__6 a__10))) 0) (>= (+ (* b__12 a__5 a__10) (* (- 0 1) (* b__12 a__7 a__10))) 0) (>= (+ (* b__12 a__7) (* b__12 a__11 a__8) (* (- 0 1) (* b__12 a__5))) 0) (= (* a__8 a__4) 0) (= a__3 0) (= (* b__12 a__8 a__10) 0) (= (* a__6 a__9 a__4) 0) (= (* b__12 a__9) 0) (>= (* a__5 a__4) 0) (>= (* a__5 a__2) 0) (>= (+ (* a__11 a__4) (* (- 0 1) (* a__5 a__4)) (* (- 0 1) (* a__11 a__6 a__4))) 0) (>= (+ (* a__5 a__4) (* (- 0 1) (* a__7 a__4)) (* (- 0 1) (* a__5 a__9 a__4))) 0) (not (and (= (* a__5 a__4) 0) (= (* a__5 a__2) 0) (= (+ (* a__11 a__4) (* (- 0 1) (* a__5 a__4)) (* (- 0 1) (* a__11 a__6 a__4))) 0) (= (+ (* a__5 a__4) (* (- 0 1) (* a__7 a__4)) (* (- 0 1) (* a__5 a__9 a__4))) 0))) (>= b__12 0) (>= 1 b__12) (>= a__4 0) (>= a__6 0) (>= a__10 0) (>= a__2 0) (>= a__8 0) (>= a__11 0) (>= a__5 0) (>= a__7 0) (>= a__3 0) (>= a__9 0)))
(check-sat)
;;(get-assignment)
;;(get-model)
(exit)
